54377
6 3 385
3 43 1096
43 40 1279
40 51 1042
51 13 644
13 41 686
41 24 966
24 35 296
35 5 323
5 37 467
37 7 517
7 20 846
20 50 763
50 38 1180
38 8 368
8 44 383
44 32 676
32 19 1127
19 49 934
49 48 761
48 17 415
17 29 1002
29 21 516
21 23 176
23 53 388
53 54 624
54 34 401
34 9 835
9 10 803
10 22 117
22 16 737
16 39 451
39 46 214
46 36 402
36 15 679
15 52 631
52 45 722
45 11 436
11 25 545
25 31 299
31 27 4460
27 1 4123
1 33 7621
33 42 4807
42 2 1722
2 14 433
14 12 816
12 18 768
18 4 606
4 30 380
30 47 944
47 26 1277
26 55 397
55 28 487
28 6 404
